p td 120 119
0 1
0 2
0 8
0 9
0 10
0 16
0 17
0 29
0 31
0 54
0 58
0 61
0 73
0 85
0 100
0 103
0 110
0 114
0 116
1 24
1 26
1 92
1 115
2 3
2 12
2 96
3 4
3 5
3 6
3 7
3 11
3 13
3 27
3 49
4 72
5 22
5 40
5 77
5 82
6 14
6 15
6 33
6 50
6 78
6 95
6 118
7 20
7 30
7 37
7 46
7 51
7 107
8 21
8 28
8 35
8 52
9 18
10 23
10 25
10 36
10 42
10 48
11 19
11 45
11 68
11 83
14 34
14 41
14 47
14 89
14 91
14 99
14 102
16 111
22 53
23 32
23 62
23 101
24 108
25 79
25 104
25 117
27 39
27 55
27 66
27 76
28 93
29 69
29 86
29 98
30 60
30 75
31 63
31 74
33 44
33 64
34 80
35 38
35 67
35 81
35 94
37 70
38 43
38 56
40 112
41 71
41 90
44 84
44 113
45 105
45 109
47 57
54 87
57 59
58 65
65 97
77 88
91 119
105 106
